words_hard_train/8908.qaiger
aag 18 9 0 1 9
2
4
8
10
14
16
20
26
32
37
6 2 5
12 9 11
18 15 17
22 18 21
24 12 22
28 24 27
30 29 5
34 31 32
36 7 35
i0 2 y2[6]
i1 2 y2[7]
i2 2 y2[1]
i3 2 y2[2]
i4 2 y2[3]
i5 2 y2[5]
i6 2 y2[0]
i7 2 y2[4]
i8 1 x2[0]
o0 bv[0]
c
simplified
  <
    add
      abs
        2 y2
      2 y2
    and
      1
      1 x2
