words_hard_train/8908.qaiger.qdimacs
p cnf 18 28
a 16 0
e 1 2 3 4 5 6 7 8 9 10 11 12 13 14 15 17 18 0
-1 2 3 0
1 -3 0
-2 -3 0
4 5 6 0
-4 -6 0
-5 -6 0
7 8 9 0
-7 -9 0
-8 -9 0
-9 10 11 0
9 -11 0
-10 -11 0
-6 -11 12 0
6 -12 0
11 -12 0
-12 13 14 0
12 -14 0
-13 -14 0
14 2 15 0
-14 -15 0
-2 -15 0
15 -16 17 0
-15 -17 0
16 -17 0
3 17 18 0
-3 -18 0
-17 -18 0
-18 0
